300
300
210
210
210
210
209
209
208
207
207
206
204
203
203
203
202
202
202
202
201
200
200
200
200
199
197
197
197
197
196
196
195
194
194
193
192
192
192
191
190
190
189
187
185
184
184
183
181
180
179
179
179
179
176
175
174
173
173
173
172
171
171
171
169
169
169
168
168
168
167
167
167
167
166
165
165
165
164
164
163
163
162
162
161
160
159
158
158
156
156
155
154
154
153
153
153
151
151
150
150
149
149
148
148
148
148
147
147
145
144
144
144
143
142
142
142
141
140
139
139
138
137
137
137
136
135
134
133
132
132
132
130
130
128
127
127
126
126
125
124
124
124
124
123
122
122
121
120
120
119
118
118
116
116
116
115
114
113
112
110
109
109
108
107
107
106
106
106
105
105
104
104
104
104
104
103
103
102
101
101
101
100
100
100
99
99
98
98
97
97
97
96
95
94
92
91
90
90
89
88
88
88
88
86
83
83
83
81
81
80
78
75
74
73
72
72
71
71
69
69
68
68
66
64
63
63
63
63
62
62
62
62
62
61
61
60
59
59
59
59
59
59
58
57
57
56
56
56
55
55
54
54
53
53
53
53
51
50
50
50
50
50
49
49
48
47
47
46
45
44
44
44
44
44
44
43
42
42
38
37
37
37
36
36
36
36
36
35
34
34
34
33
32
32
31
31
31
30
30
30
30
